NAME: set2_case2_7_20
COMMENT: 2005
VEHICLE: 46
TIME: 600
DIMENSION: 20
CAPACITY: 10
DELIVERY_SECTION
0 0 0
1 1 2
2 1 2
3 1 2
4 1 2
5 1 2
6 1 2
7 1 2
8 1 1
9 2 2
10 2 2
11 2 2
12 2 2
13 2 2
14 2 2
15 2 2
16 2 2
17 3 2
18 3 2
19 3 2
20 3 2
21 3 2
22 3 2
23 3 2
24 3 2
25 3 1
26 4 2
27 4 2
28 4 2
29 4 2
30 4 2
31 4 2
32 4 2
33 4 2
34 4 2
35 5 2
36 5 2
37 5 2
38 5 2
39 5 2
40 5 2
41 5 2
42 5 2
43 5 2
44 5 1
45 6 2
46 6 2
47 6 2
48 6 2
49 6 2
50 6 2
51 6 2
52 6 2
53 6 2
54 6 2
55 7 2
56 7 2
57 7 2
58 7 2
59 7 2
60 7 2
61 7 2
62 7 2
63 7 2
64 7 2
65 7 1
66 8 2
67 8 2
68 8 2
69 8 2
70 8 2
71 8 2
72 8 2
73 8 2
74 8 2
75 8 2
76 8 2
77 9 2
78 9 2
79 9 2
80 9 2
81 9 2
82 9 2
83 9 2
84 9 2
85 9 2
86 9 2
87 9 2
88 9 1
89 10 2
90 10 2
91 10 2
92 10 2
93 10 2
94 10 2
95 10 2
96 10 2
97 10 2
98 10 2
99 10 2
100 10 2
101 11 2
102 11 2
103 11 2
104 11 2
105 11 2
106 11 2
107 11 2
108 11 2
109 11 2
110 11 2
111 11 2
112 11 2
113 11 1
114 12 2
115 12 2
116 12 2
117 12 2
118 12 2
119 12 2
120 12 2
121 12 2
122 12 2
123 12 2
124 12 2
125 12 2
126 12 2
127 13 2
128 13 2
129 13 2
130 13 2
131 13 2
132 13 2
133 13 2
134 13 2
135 13 2
136 13 2
137 13 2
138 13 2
139 13 2
140 13 1
141 14 2
142 14 2
143 14 2
144 14 2
145 14 2
146 14 2
147 14 2
148 14 2
149 14 2
150 14 2
151 14 2
152 14 2
153 14 2
154 14 2
155 15 2
156 15 2
157 15 2
158 15 2
159 15 2
160 15 2
161 15 2
162 15 2
163 15 2
164 15 2
165 15 2
166 15 2
167 15 2
168 15 2
169 15 1
170 16 2
171 16 2
172 16 2
173 16 2
174 16 2
175 16 2
176 16 2
177 16 2
178 16 2
179 16 2
180 16 2
181 16 2
182 16 2
183 16 2
184 16 2
185 17 2
186 17 2
187 17 2
188 17 2
189 17 2
190 17 2
191 17 2
192 17 2
193 17 2
194 17 2
195 17 2
196 17 2
197 17 2
198 17 2
199 17 2
200 17 1
201 18 2
202 18 2
203 18 2
204 18 2
205 18 2
206 18 2
207 18 2
208 18 2
209 18 2
210 18 2
211 18 2
212 18 2
213 18 2
214 18 2
215 18 2
216 18 2
217 19 2
218 19 2
219 19 2
220 19 2
221 19 2
222 19 2
223 19 2
224 19 2
225 19 2
226 19 2
227 19 2
228 19 2
229 19 2
230 19 2
231 19 2
232 19 2
233 19 1
PICKUP_SECTION
0 0 0
1 1 2
2 1 2
3 1 2
4 1 2
5 1 2
6 2 2
7 2 2
8 2 2
9 2 2
10 2 2
11 3 2
12 3 2
13 3 2
14 3 2
15 3 2
16 4 2
17 4 2
18 4 2
19 4 2
20 4 2
21 5 2
22 5 2
23 5 2
24 5 2
25 5 2
26 6 2
27 6 2
28 6 2
29 6 2
30 6 2
31 7 2
32 7 2
33 7 2
34 7 2
35 7 2
36 8 2
37 8 2
38 8 2
39 8 2
40 8 2
41 9 2
42 9 2
43 9 2
44 9 2
45 9 2
46 10 2
47 10 2
48 10 2
49 10 2
50 10 2
51 11 2
52 11 2
53 11 2
54 11 2
55 11 2
56 12 2
57 12 2
58 12 2
59 12 2
60 12 2
61 13 2
62 13 2
63 13 2
64 13 2
65 13 2
66 14 2
67 14 2
68 14 2
69 14 2
70 14 2
71 15 2
72 15 2
73 15 2
74 15 2
75 15 2
76 16 2
77 16 2
78 16 2
79 16 2
80 16 2
81 17 2
82 17 2
83 17 2
84 17 2
85 17 2
86 18 2
87 18 2
88 18 2
89 18 2
90 18 2
91 19 2
92 19 2
93 19 2
94 19 2
95 19 2
NODE_SECTION
DISTANCE_SECTION
10 11 12 13 14 15 16 17 18 19 20 21 22 23 24 25 26 27 28 
10 11 12 13 14 15 16 17 18 19 20 21 22 23 24 25 26 27 
10 11 12 13 14 15 16 17 18 19 20 21 22 23 24 25 26 
10 11 12 13 14 15 16 17 18 19 20 21 22 23 24 25 
10 11 12 13 14 15 16 17 18 19 20 21 22 23 24 
10 11 12 13 14 15 16 17 18 19 20 21 22 23 
10 11 12 13 14 15 16 17 18 19 20 21 22 
10 11 12 13 14 15 16 17 18 19 20 21 
10 11 12 13 14 15 16 17 18 19 20 
10 11 12 13 14 15 16 17 18 19 
10 11 12 13 14 15 16 17 18 
10 11 12 13 14 15 16 17 
10 11 12 13 14 15 16 
10 11 12 13 14 15 
10 11 12 13 14 
10 11 12 13 
10 11 12 
10 11 
10 
DEPOT_SECTION
0
EOF